p cnf 187 212
-1 12 90 -2 10 171 -5 -107 -172 -176 -187 0 
-3 47 111 163 -4 53 55 122 149 151 172 -176 -187 0 
-5 107 173 0 
-6 74 173 0 
-7 123 135 136 137 138 140 141 142 143 144 145 146 166 167 -4 53 55 122 149 151 172 -176 -187 0 
-8 35 41 95 171 -5 -107 -172 -176 -187 0 
-8 35 41 95 174 -172 -176 -187 -5 -107 0 
-1 12 90 -9 -10 2 -11 174 -172 -176 -187 -5 -107 0 
-12 1 90 171 -5 -107 -172 -176 -187 0 
-13 59 175 -22 -78 -172 -176 -187 0 
-14 103 171 -5 -107 -172 -176 -187 0 
-5 107 176 -172 -187 0 
-15 177 -178 -186 0 
-16 176 -172 -187 0 
-15 176 -172 -187 0 
-17 27 50 54 56 80 86 147 156 172 -176 -187 0 
-18 171 -5 -107 -172 -176 -187 0 
-19 -20 171 -5 -107 -172 -176 -187 0 
-6 74 171 -5 -107 -172 -176 -187 0 
-21 171 -5 -107 -172 -176 -187 0 
-22 78 173 0 
-23 68 171 -5 -107 -172 -176 -187 0 
-22 78 171 -5 -107 -172 -176 -187 0 
-24 25 34 139 171 -5 -107 -172 -176 -187 0 
-1 12 90 -9 -2 10 171 -5 -107 -172 -176 -187 0 
-25 24 34 139 171 -5 -107 -172 -176 -187 0 
-26 -27 17 50 54 56 80 86 147 156 -28 172 -176 -187 0 
-9 178 -177 -186 0 
-29 172 -176 -187 0 
-30 -31 -12 1 90 179 -33 -152 -172 -176 -187 0 
-30 171 -5 -107 -172 -176 -187 0 
-15 -5 107 176 -172 -187 0 
-32 46 75 106 129 155 160 -33 152 176 -172 -187 0 
-32 46 75 106 129 155 160 176 -172 -187 0 
-34 24 25 139 176 -172 -187 0 
-35 8 41 95 171 -5 -107 -172 -176 -187 0 
-1 12 90 171 -5 -107 -172 -176 -187 0 
-12 1 90 -10 2 -36 -37 171 -5 -107 -172 -176 -187 0 
-19 -35 8 41 95 171 -5 -107 -172 -176 -187 0 
-20 171 -5 -107 -172 -176 -187 0 
-2 10 -9 171 -5 -107 -172 -176 -187 0 
-38 -39 73 -40 42 112 -31 -41 8 35 95 180 -16 -172 -176 -187 0 
-35 8 41 95 177 -178 -186 0 
-42 40 112 172 -176 -187 0 
-43 -44 48 65 172 -176 -187 0 
-17 27 50 54 56 80 86 147 156 -45 172 -176 -187 0 
-46 32 75 106 129 155 160 -12 1 90 172 -176 -187 0 
-47 3 111 163 -31 -12 1 90 172 -176 -187 0 
-48 44 65 -49 -12 1 90 172 -176 -187 0 
-50 17 27 54 56 80 86 147 156 175 -22 -78 -172 -176 -187 0 
-50 17 27 54 56 80 86 147 156 172 -176 -187 0 
-47 3 111 163 171 -5 -107 -172 -176 -187 0 
-51 -52 63 79 172 -176 -187 0 
-53 4 55 122 149 151 172 -176 -187 0 
-28 -54 17 27 50 56 80 86 147 156 -55 4 53 122 149 151 172 -176 -187 0 
-6 74 -46 32 75 106 129 155 160 -55 4 53 122 149 151 172 -176 -187 0 
-56 17 27 50 54 80 86 147 156 172 -176 -187 0 
-44 48 65 -57 62 97 128 159 -31 172 -176 -187 0 
-58 171 -5 -107 -172 -176 -187 0 
-59 13 172 -176 -187 0 
-60 172 -176 -187 0 
-61 132 172 -176 -187 0 
-62 57 97 128 159 -63 52 79 172 -176 -187 0 
-64 104 172 -176 -187 0 
-65 44 48 176 -172 -187 0 
-66 171 -5 -107 -172 -176 -187 0 
-44 48 65 171 -5 -107 -172 -176 -187 0 
-28 171 -5 -107 -172 -176 -187 0 
-67 -43 171 -5 -107 -172 -176 -187 0 
-68 23 171 -5 -107 -172 -176 -187 0 
-25 24 34 139 172 -176 -187 0 
-31 172 -176 -187 0 
-42 40 112 -54 17 27 50 56 80 86 147 156 -31 172 -176 -187 0 
-69 -70 -71 172 -176 -187 0 
-72 110 134 172 -176 -187 0 
-47 3 111 163 172 -176 -187 0 
-73 39 181 -76 -172 -176 -187 0 
-74 6 182 -120 -126 -150 -172 -176 -187 0 
-44 48 65 -41 8 35 95 179 -33 -152 -172 -176 -187 0 
-75 32 46 106 129 155 160 183 -57 -62 -97 -128 -159 -172 -176 -187 0 
-50 17 27 54 56 80 86 147 156 -12 1 90 184 -121 -148 -172 -176 -187 0 
-76 -77 172 -176 -187 0 
-78 22 -79 52 63 172 -176 -187 0 
-80 17 27 50 54 56 86 147 156 172 -176 -187 0 
-28 172 -176 -187 0 
-81 172 -176 -187 0 
-82 161 176 -172 -187 0 
-9 176 -172 -187 0 
-47 3 111 163 -28 172 -176 -187 0 
-83 -12 1 90 172 -176 -187 0 
-84 172 -176 -187 0 
-85 88 114 118 131 172 -176 -187 0 
-86 17 27 50 54 56 80 147 156 -87 172 -176 -187 0 
-88 85 114 118 131 -46 32 75 106 129 155 160 172 -176 -187 0 
-31 -12 1 90 172 -176 -187 0 
-42 40 112 -35 8 41 95 172 -176 -187 0 
-89 125 -12 1 90 172 -176 -187 0 
-90 1 12 171 -5 -107 -172 -176 -187 0 
-91 94 133 171 -5 -107 -172 -176 -187 0 
-1 12 90 -11 171 -5 -107 -172 -176 -187 0 
-92 -93 162 -94 91 133 171 -5 -107 -172 -176 -187 0 
-12 1 90 -11 171 -5 -107 -172 -176 -187 0 
-95 8 35 41 171 -5 -107 -172 -176 -187 0 
-67 -38 -96 -25 24 34 139 171 -5 -107 -172 -176 -187 0 
-12 1 90 -20 171 -5 -107 -172 -176 -187 0 
-97 57 62 128 159 -9 185 -44 -48 -65 -172 -176 -187 0 
-19 171 -5 -107 -172 -176 -187 0 
-57 62 97 128 159 -47 3 111 163 -98 -99 153 180 -16 -172 -176 -187 0 
-100 171 -5 -107 -172 -176 -187 0 
-101 176 -172 -187 0 
-100 178 -177 -186 0 
-102 186 -177 -178 0 
-103 14 171 -5 -107 -172 -176 -187 0 
-104 64 178 -177 -186 0 
-105 178 -177 -186 0 
-106 32 46 75 129 155 160 178 -177 -186 0 
-107 5 187 -172 -176 0 
-108 109 -41 8 35 95 172 -176 -187 0 
-109 108 -12 1 90 172 -176 -187 0 
-110 72 134 -83 172 -176 -187 0 
-46 32 75 106 129 155 160 -31 -12 1 90 172 -176 -187 0 
-111 3 47 163 172 -176 -187 0 
-25 24 34 139 -112 40 42 -29 172 -176 -187 0 
-113 171 -5 -107 -172 -176 -187 0 
-114 85 88 118 131 -57 62 97 128 159 172 -176 -187 0 
-115 171 -5 -107 -172 -176 -187 0 
-116 171 -5 -107 -172 -176 -187 0 
-117 171 -5 -107 -172 -176 -187 0 
-37 171 -5 -107 -172 -176 -187 0 
-118 85 88 114 131 -119 171 -5 -107 -172 -176 -187 0 
-120 126 150 -121 148 -1 12 90 171 -5 -107 -172 -176 -187 0 
-122 4 53 55 149 151 172 -176 -187 0 
-41 8 35 95 172 -176 -187 0 
-1 12 90 -9 -11 171 -5 -107 -172 -176 -187 0 
-16 173 0 
-91 94 133 -12 1 90 171 -5 -107 -172 -176 -187 0 
-123 7 135 136 137 138 140 141 142 143 144 145 146 166 167 -31 172 -176 -187 0 
-76 -48 44 65 -49 172 -176 -187 0 
-124 130 -125 89 -126 120 150 185 -44 -48 -65 -172 -176 -187 0 
-127 168 171 -5 -107 -172 -176 -187 0 
-128 57 62 97 159 171 -5 -107 -172 -176 -187 0 
-129 32 46 75 106 155 160 -9 176 -172 -187 0 
-130 124 -26 -131 85 88 114 118 -132 61 175 -22 -78 -172 -176 -187 0 
-91 94 133 -1 12 90 171 -5 -107 -172 -176 -187 0 
-110 72 134 173 0 
-9 -1 12 90 -2 10 171 -5 -107 -172 -176 -187 0 
-1 12 90 -91 94 133 171 -5 -107 -172 -176 -187 0 
-35 8 41 95 171 -5 -107 -172 -176 -187 0 
-133 91 94 -12 1 90 171 -5 -107 -172 -176 -187 0 
-12 1 90 -91 94 133 171 -5 -107 -172 -176 -187 0 
-1 12 90 -19 171 -5 -107 -172 -176 -187 0 
-134 72 110 173 0 
-5 107 178 -177 -186 0 
-135 7 123 136 137 138 140 141 142 143 144 145 146 166 167 173 0 
-136 7 123 135 137 138 140 141 142 143 144 145 146 166 167 173 0 
-137 7 123 135 136 138 140 141 142 143 144 145 146 166 167 173 0 
-138 7 123 135 136 137 140 141 142 143 144 145 146 166 167 173 0 
-139 24 25 34 173 0 
-23 68 173 0 
-24 25 34 139 173 0 
-140 7 123 135 136 137 138 141 142 143 144 145 146 166 167 173 0 
-25 24 34 139 173 0 
-141 7 123 135 136 137 138 140 142 143 144 145 146 166 167 173 0 
-142 7 123 135 136 137 138 140 141 143 144 145 146 166 167 173 0 
-143 7 123 135 136 137 138 140 141 142 144 145 146 166 167 173 0 
-144 7 123 135 136 137 138 140 141 142 143 145 146 166 167 173 0 
-145 7 123 135 136 137 138 140 141 142 143 144 146 166 167 173 0 
-146 7 123 135 136 137 138 140 141 142 143 144 145 166 167 173 0 
-9 -1 12 90 -10 2 -11 171 -5 -107 -172 -176 -187 0 
-66 -15 171 -5 -107 -172 -176 -187 0 
-147 17 27 50 54 56 80 86 156 176 -172 -187 0 
-46 32 75 106 129 155 160 172 -176 -187 0 
-148 121 172 -176 -187 0 
-149 4 53 55 122 151 171 -5 -107 -172 -176 -187 0 
-150 120 126 172 -176 -187 0 
-151 4 53 55 122 149 172 -176 -187 0 
-152 33 176 -172 -187 0 
-69 172 -176 -187 0 
-153 99 172 -176 -187 0 
-42 40 112 -12 1 90 172 -176 -187 0 
-154 176 -172 -187 0 
-44 48 65 -42 40 112 -47 3 111 163 -31 172 -176 -187 0 
-155 32 46 75 106 129 160 172 -176 -187 0 
-156 17 27 50 54 56 80 86 147 172 -176 -187 0 
-72 110 134 -4 53 55 122 149 151 172 -176 -187 0 
-27 17 50 54 56 80 86 147 156 172 -176 -187 0 
-96 171 -5 -107 -172 -176 -187 0 
-95 8 35 41 171 -5 -107 -172 -176 -187 0 
-1 12 90 -11 174 -172 -176 -187 -5 -107 0 
-157 -2 10 171 -5 -107 -172 -176 -187 0 
-92 -93 162 -12 1 90 171 -5 -107 -172 -176 -187 0 
-158 173 0 
-6 74 -159 57 62 97 128 -28 172 -176 -187 0 
-47 3 111 163 -28 -90 1 12 172 -176 -187 0 
-4 53 55 122 149 151 172 -176 -187 0 
-160 32 46 75 106 129 155 172 -176 -187 0 
-161 82 -16 -12 1 90 171 -5 -107 -172 -176 -187 0 
-110 72 134 -162 93 171 -5 -107 -172 -176 -187 0 
-82 161 171 -5 -107 -172 -176 -187 0 
-23 68 -163 3 47 111 171 -5 -107 -172 -176 -187 0 
-164 172 -176 -187 0 
-5 107 177 -178 -186 0 
-38 -165 172 -176 -187 0 
-47 3 111 163 -4 53 55 122 149 151 172 -176 -187 0 
-166 7 123 135 136 137 138 140 141 142 143 144 145 146 167 -42 40 112 172 -176 -187 0 
-167 7 123 135 136 137 138 140 141 142 143 144 145 146 166 172 -176 -187 0 
-168 127 172 -176 -187 0 
-33 152 176 -172 -187 0 
-128 57 62 97 159 176 -172 -187 0 
-69 -169 176 -172 -187 0 
-39 73 -169 176 -172 -187 0 
-170 176 -172 -187 0 
